c t mc
c file mc2022_track1_019.cnf
p cnf 460 561
-1  -2 0
1 2 0
-2 -103 3 0
-2 103 -3 0
2 -104 3 0
2 104 -3 0
-3  -4 0
3 4 0
-4 5 0
4  -5 0
-5 -109 6 0
-5 109 -6 0
5 -110 6 0
5 110 -6 0
-6 -111 7 0
-6 111 -7 0
6 -112 7 0
6 112 -7 0
-7 -113 8 0
-7 113 -8 0
7 -114 8 0
7 114 -8 0
-8 -115 9 0
-8 115 -9 0
8 -116 9 0
8 116 -9 0
-9 -117 10 0
-9 117 -10 0
9 -118 10 0
9 118 -10 0
-1 -119 11 0
-1 119 -11 0
1 -120 11 0
1 120 -11 0
-11 -2  -12 0
-11 2  -12 0
11 -2  -12 0
11 2 12 0
-12 -3 13 0
-12 3  -13 0
12 -3 13 0
12 3  -13 0
-13 -4  -14 0
-13 4 14 0
13 -4 14 0
13 4  -14 0
-14 -5  -15 0
-14 5 15 0
14 -5  -15 0
14 5  -15 0
-15 -6 16 0
-15 6  -16 0
15 -6 16 0
15 6 16 0
-16 -7 -141 17 0
-16 -7 141 -17 0
-16 7 -142 17 0
-16 7 142 -17 0
16 -7 -143 17 0
16 -7 143 -17 0
16 7 -144 17 0
16 7 144 -17 0
-17 -8 18 0
-17 8 18 0
17 -8  -18 0
17 8 18 0
-18 -9 -149 19 0
-18 -9 149 -19 0
-18 9 -150 19 0
-18 9 150 -19 0
18 -9 -151 19 0
18 -9 151 -19 0
18 9 -152 19 0
18 9 152 -19 0
-19 -10 -153 20 0
-19 -10 153 -20 0
-19 10 -154 20 0
-19 10 154 -20 0
19 -10 -155 20 0
19 -10 155 -20 0
19 10 -156 20 0
19 10 156 -20 0
-11 21 0
11  -21 0
-21 -12 -159 22 0
-21 -12 159 -22 0
-21 12 -160 22 0
-21 12 160 -22 0
21 -12 -161 22 0
21 -12 161 -22 0
21 12 -162 22 0
21 12 162 -22 0
-22 -13 23 0
-22 13  -23 0
22 -13  -23 0
22 13 23 0
-23 -14 -167 24 0
-23 -14 167 -24 0
-23 14 -168 24 0
-23 14 168 -24 0
23 -14 -169 24 0
23 -14 169 -24 0
23 14 -170 24 0
23 14 170 -24 0
-24 -15 25 0
-24 15 25 0
24 -15  -25 0
24 15 25 0
-25 -16 -175 26 0
-25 -16 175 -26 0
-25 16 -176 26 0
-25 16 176 -26 0
25 -16 -177 26 0
25 -16 177 -26 0
25 16 -178 26 0
25 16 178 -26 0
-26 -17  -27 0
-26 17 27 0
26 -17 27 0
26 17  -27 0
-27 -18 -183 28 0
-27 -18 183 -28 0
-27 18 -184 28 0
-27 18 184 -28 0
27 -18 -185 28 0
27 -18 185 -28 0
27 18 -186 28 0
27 18 186 -28 0
-28 -19 -187 29 0
-28 -19 187 -29 0
-28 19 -188 29 0
-28 19 188 -29 0
28 -19 -189 29 0
28 -19 189 -29 0
28 19 -190 29 0
28 19 190 -29 0
-29 -20 -191 30 0
-29 -20 191 -30 0
-29 20 -192 30 0
-29 20 192 -30 0
29 -20 -193 30 0
29 -20 193 -30 0
29 20 -194 30 0
29 20 194 -30 0
-21 -195 31 0
-21 195 -31 0
21 -196 31 0
21 196 -31 0
-31 -22 -197 32 0
-31 -22 197 -32 0
-31 22 -198 32 0
-31 22 198 -32 0
31 -22 -199 32 0
31 -22 199 -32 0
31 22 -200 32 0
31 22 200 -32 0
-32 -23 -201 33 0
-32 -23 201 -33 0
-32 23 -202 33 0
-32 23 202 -33 0
32 -23 -203 33 0
32 -23 203 -33 0
32 23 -204 33 0
32 23 204 -33 0
-33 -24 34 0
-33 24 34 0
33 -24  -34 0
33 24  -34 0
-34 -25  -35 0
-34 25  -35 0
34 -25 35 0
34 25  -35 0
-35 -26 36 0
-35 26 36 0
35 -26  -36 0
35 26  -36 0
-36 -27 37 0
-36 27  -37 0
36 -27  -37 0
36 27  -37 0
-37 -28  -38 0
-37 28 38 0
37 -28  -38 0
37 28  -38 0
-38 -29  -39 0
-38 29 39 0
38 -29  -39 0
38 29 39 0
-39 -30 -229 40 0
-39 -30 229 -40 0
-39 30 -230 40 0
-39 30 230 -40 0
39 -30 -231 40 0
39 -30 231 -40 0
39 30 -232 40 0
39 30 232 -40 0
-31 -233 41 0
-31 233 -41 0
31 -234 41 0
31 234 -41 0
-41 -32 -235 42 0
-41 -32 235 -42 0
-41 32 -236 42 0
-41 32 236 -42 0
41 -32 -237 42 0
41 -32 237 -42 0
41 32 -238 42 0
41 32 238 -42 0
-42 -33 43 0
-42 33  -43 0
42 -33 43 0
42 33 43 0
-43 -34 -243 44 0
-43 -34 243 -44 0
-43 34 -244 44 0
-43 34 244 -44 0
43 -34 -245 44 0
43 -34 245 -44 0
43 34 -246 44 0
43 34 246 -44 0
-44 -35  -45 0
-44 35  -45 0
44 -35  -45 0
44 35 45 0
-45 -36 -251 46 0
-45 -36 251 -46 0
-45 36 -252 46 0
-45 36 252 -46 0
45 -36 -253 46 0
45 -36 253 -46 0
45 36 -254 46 0
45 36 254 -46 0
-46 -37 -255 47 0
-46 -37 255 -47 0
-46 37 -256 47 0
-46 37 256 -47 0
46 -37 -257 47 0
46 -37 257 -47 0
46 37 -258 47 0
46 37 258 -47 0
-47 -38 -259 48 0
-47 -38 259 -48 0
-47 38 -260 48 0
-47 38 260 -48 0
47 -38 -261 48 0
47 -38 261 -48 0
47 38 -262 48 0
47 38 262 -48 0
-48 -39 49 0
-48 39  -49 0
48 -39 49 0
48 39  -49 0
-49 -40 -267 50 0
-49 -40 267 -50 0
-49 40 -268 50 0
-49 40 268 -50 0
49 -40 -269 50 0
49 -40 269 -50 0
49 40 -270 50 0
49 40 270 -50 0
-41 51 0
41  -51 0
-51 -42 -273 52 0
-51 -42 273 -52 0
-51 42 -274 52 0
-51 42 274 -52 0
51 -42 -275 52 0
51 -42 275 -52 0
51 42 -276 52 0
51 42 276 -52 0
-52 -43 53 0
-52 43 53 0
52 -43  -53 0
52 43 53 0
-53 -44 -281 54 0
-53 -44 281 -54 0
-53 44 -282 54 0
-53 44 282 -54 0
53 -44 -283 54 0
53 -44 283 -54 0
53 44 -284 54 0
53 44 284 -54 0
-54 -45 -285 55 0
-54 -45 285 -55 0
-54 45 -286 55 0
-54 45 286 -55 0
54 -45 -287 55 0
54 -45 287 -55 0
54 45 -288 55 0
54 45 288 -55 0
-55 -46 56 0
-55 46 56 0
55 -46  -56 0
55 46  -56 0
-56 -47  -57 0
-56 47 57 0
56 -47  -57 0
56 47  -57 0
-57 -48 58 0
-57 48  -58 0
57 -48 58 0
57 48  -58 0
-58 -49 -301 59 0
-58 -49 301 -59 0
-58 49 -302 59 0
-58 49 302 -59 0
58 -49 -303 59 0
58 -49 303 -59 0
58 49 -304 59 0
58 49 304 -59 0
-59 -50  -60 0
-59 50  -60 0
59 -50 60 0
59 50  -60 0
-51 61 0
51  -61 0
-61 -52 -311 62 0
-61 -52 311 -62 0
-61 52 -312 62 0
-61 52 312 -62 0
61 -52 -313 62 0
61 -52 313 -62 0
61 52 -314 62 0
61 52 314 -62 0
-62 -53 -315 63 0
-62 -53 315 -63 0
-62 53 -316 63 0
-62 53 316 -63 0
62 -53 -317 63 0
62 -53 317 -63 0
62 53 -318 63 0
62 53 318 -63 0
-63 -54 -319 64 0
-63 -54 319 -64 0
-63 54 -320 64 0
-63 54 320 -64 0
63 -54 -321 64 0
63 -54 321 -64 0
63 54 -322 64 0
63 54 322 -64 0
-64 -55 -323 65 0
-64 -55 323 -65 0
-64 55 -324 65 0
-64 55 324 -65 0
64 -55 -325 65 0
64 -55 325 -65 0
64 55 -326 65 0
64 55 326 -65 0
-65 -56 -327 66 0
-65 -56 327 -66 0
-65 56 -328 66 0
-65 56 328 -66 0
65 -56 -329 66 0
65 -56 329 -66 0
65 56 -330 66 0
65 56 330 -66 0
-66 -57 -331 67 0
-66 -57 331 -67 0
-66 57 -332 67 0
-66 57 332 -67 0
66 -57 -333 67 0
66 -57 333 -67 0
66 57 -334 67 0
66 57 334 -67 0
-67 -58 -335 68 0
-67 -58 335 -68 0
-67 58 -336 68 0
-67 58 336 -68 0
67 -58 -337 68 0
67 -58 337 -68 0
67 58 -338 68 0
67 58 338 -68 0
-68 -59 -339 69 0
-68 -59 339 -69 0
-68 59 -340 69 0
-68 59 340 -69 0
68 -59 -341 69 0
68 -59 341 -69 0
68 59 -342 69 0
68 59 342 -69 0
-69 -60  -70 0
-69 60  -70 0
69 -60 70 0
69 60  -70 0
-61  -71 0
61 71 0
-71 -62 -349 72 0
-71 -62 349 -72 0
-71 62 -350 72 0
-71 62 350 -72 0
71 -62 -351 72 0
71 -62 351 -72 0
71 62 -352 72 0
71 62 352 -72 0
-72 -63  -73 0
-72 63 73 0
72 -63  -73 0
72 63  -73 0
-73 -64 -357 74 0
-73 -64 357 -74 0
-73 64 -358 74 0
-73 64 358 -74 0
73 -64 -359 74 0
73 -64 359 -74 0
73 64 -360 74 0
73 64 360 -74 0
-74 -65 75 0
-74 65 75 0
74 -65  -75 0
74 65  -75 0
-75 -66 76 0
-75 66 76 0
75 -66 76 0
75 66  -76 0
-76 -67  -77 0
-76 67 77 0
76 -67  -77 0
76 67  -77 0
-77 -68 -373 78 0
-77 -68 373 -78 0
-77 68 -374 78 0
-77 68 374 -78 0
77 -68 -375 78 0
77 -68 375 -78 0
77 68 -376 78 0
77 68 376 -78 0
-78 -69 79 0
-78 69  -79 0
78 -69 79 0
78 69 79 0
-79 -70 80 0
-79 70 80 0
79 -70  -80 0
79 70 80 0
-71 -385 81 0
-71 385 -81 0
71 -386 81 0
71 386 -81 0
-81 -72 -387 82 0
-81 -72 387 -82 0
-81 72 -388 82 0
-81 72 388 -82 0
81 -72 -389 82 0
81 -72 389 -82 0
81 72 -390 82 0
81 72 390 -82 0
-82 -73 -391 83 0
-82 -73 391 -83 0
-82 73 -392 83 0
-82 73 392 -83 0
82 -73 -393 83 0
82 -73 393 -83 0
82 73 -394 83 0
82 73 394 -83 0
-83 -74 -395 84 0
-83 -74 395 -84 0
-83 74 -396 84 0
-83 74 396 -84 0
83 -74 -397 84 0
83 -74 397 -84 0
83 74 -398 84 0
83 74 398 -84 0
-84 -75 -399 85 0
-84 -75 399 -85 0
-84 75 -400 85 0
-84 75 400 -85 0
84 -75 -401 85 0
84 -75 401 -85 0
84 75 -402 85 0
84 75 402 -85 0
-85 -76 -403 86 0
-85 -76 403 -86 0
-85 76 -404 86 0
-85 76 404 -86 0
85 -76 -405 86 0
85 -76 405 -86 0
85 76 -406 86 0
85 76 406 -86 0
-86 -77 -407 87 0
-86 -77 407 -87 0
-86 77 -408 87 0
-86 77 408 -87 0
86 -77 -409 87 0
86 -77 409 -87 0
86 77 -410 87 0
86 77 410 -87 0
-87 -78 -411 88 0
-87 -78 411 -88 0
-87 78 -412 88 0
-87 78 412 -88 0
87 -78 -413 88 0
87 -78 413 -88 0
87 78 -414 88 0
87 78 414 -88 0
-88 -79 -415 89 0
-88 -79 415 -89 0
-88 79 -416 89 0
-88 79 416 -89 0
88 -79 -417 89 0
88 -79 417 -89 0
88 79 -418 89 0
88 79 418 -89 0
-89 -80 90 0
-89 80 90 0
89 -80  -90 0
89 80 90 0
-81  -91 0
81 91 0
-91 -82 -425 92 0
-91 -82 425 -92 0
-91 82 -426 92 0
-91 82 426 -92 0
91 -82 -427 92 0
91 -82 427 -92 0
91 82 -428 92 0
91 82 428 -92 0
-92 -83  -93 0
-92 83 93 0
92 -83 93 0
92 83 93 0
-93 -84 -433 94 0
-93 -84 433 -94 0
-93 84 -434 94 0
-93 84 434 -94 0
93 -84 -435 94 0
93 -84 435 -94 0
93 84 -436 94 0
93 84 436 -94 0
-94 -85  -95 0
-94 85 95 0
94 -85 95 0
94 85 95 0
-95 -86 96 0
-95 86 96 0
95 -86  -96 0
95 86  -96 0
-96 -87  -97 0
-96 87  -97 0
96 -87 97 0
96 87  -97 0
-97 -88 -449 98 0
-97 -88 449 -98 0
-97 88 -450 98 0
-97 88 450 -98 0
97 -88 -451 98 0
97 -88 451 -98 0
97 88 -452 98 0
97 88 452 -98 0
-98 -89  -99 0
-98 89 99 0
98 -89  -99 0
98 89 99 0
-99 -90 -457 100 0
-99 -90 457 -100 0
-99 90 -458 100 0
-99 90 458 -100 0
99 -90 -459 100 0
99 -90 459 -100 0
99 90 -460 100 0
99 90 460 -100 0
100 0
